36 14
10 476
11 443
10 877
7 621
4 748
5 351
13 686
11 831
3 105
8 357
12 572
10 361
2 723
6 710
11 650
8 942
11 733
12 106
10 370
11 67
9 559
1 334
2 390
7 329
1 598
7 464
7 587
2 839
1 40
4 527
9 294
1 71
6 880
9 520
8 774
11 585
